unsat
(forall ((A (_ BitVec 20))
         (B (_ BitVec 20))
         (C (_ BitVec 20))
         (D (_ BitVec 20))
         (E (_ BitVec 20))
         (F (_ BitVec 20))
         (G (_ BitVec 20))
         (H (_ BitVec 20))
         (I (_ BitVec 20))
         (J (_ BitVec 20))
         (K (_ BitVec 20))
         (L (_ BitVec 20))
         (M (_ BitVec 20))
         (N (_ BitVec 1))
         (O (_ BitVec 1))
         (P (_ BitVec 1))
         (Q (_ BitVec 1))
         (R (_ BitVec 20))
         (S (_ BitVec 20))
         (T (_ BitVec 20))
         (U (_ BitVec 20))
         (V (_ BitVec 20))
         (W (_ BitVec 20))
         (X (_ BitVec 1))
         (Y (_ BitVec 20))
         (Z (_ BitVec 18))
         (A1 (_ BitVec 20))
         (B1 (_ BitVec 18))
         (C1 (_ BitVec 20))
         (D1 (_ BitVec 20))
         (E1 (_ BitVec 38))
         (F1 (_ BitVec 1))
         (G1 (_ BitVec 20))
         (H1 (_ BitVec 20))
         (I1 (_ BitVec 17))
         (J1 (_ BitVec 1))
         (K1 (_ BitVec 1))
         (L1 (_ BitVec 1))
         (M1 (_ BitVec 20))
         (N1 (_ BitVec 20))
         (O1 (_ BitVec 17))
         (P1 (_ BitVec 20))
         (Q1 (_ BitVec 20))
         (R1 (_ BitVec 20))
         (S1 (_ BitVec 20))
         (T1 (_ BitVec 1))
         (U1 (_ BitVec 20))
         (V1 (_ BitVec 1))
         (W1 (_ BitVec 20))
         (X1 (_ BitVec 17))
         (Y1 (_ BitVec 38))
         (Z1 (_ BitVec 20))
         (A2 (_ BitVec 38))
         (B2 (_ BitVec 38))
         (C2 (_ BitVec 1))
         (D2 (_ BitVec 20))
         (E2 (_ BitVec 1))
         (F2 (_ BitVec 20))
         (G2 (_ BitVec 38))
         (H2 (_ BitVec 38))
         (I2 (_ BitVec 1))
         (J2 (_ BitVec 1))
         (K2 (_ BitVec 20))
         (L2 (_ BitVec 20))
         (M2 (_ BitVec 20))
         (N2 (_ BitVec 20))
         (O2 (_ BitVec 14))
         (P2 (_ BitVec 17))
         (Q2 (_ BitVec 17))
         (R2 (_ BitVec 17))
         (S2 (_ BitVec 17))
         (T2 (_ BitVec 17))
         (U2 (_ BitVec 20))
         (V2 (_ BitVec 20))
         (W2 (_ BitVec 37))
         (X2 (_ BitVec 20))
         (Y2 (_ BitVec 20))
         (Z2 (_ BitVec 20))
         (A3 (_ BitVec 1))
         (B3 (_ BitVec 38))
         (C3 (_ BitVec 22))
         (D3 (_ BitVec 20))
         (E3 (_ BitVec 20))
         (F3 (_ BitVec 20))
         (G3 (_ BitVec 20))
         (H3 (_ BitVec 1))
         (I3 (_ BitVec 1))
         (J3 (_ BitVec 1))
         (K3 (_ BitVec 38))
         (L3 (_ BitVec 17))
         (M3 (_ BitVec 14))
         (N3 (_ BitVec 17))
         (O3 (_ BitVec 22))
         (P3 (_ BitVec 14))
         (Q3 (_ BitVec 22))
         (R3 (_ BitVec 14))
         (S3 (_ BitVec 22))
         (T3 (_ BitVec 14))
         (U3 (_ BitVec 22))
         (V3 (_ BitVec 14))
         (W3 (_ BitVec 38))
         (X3 (_ BitVec 22))
         (Y3 (_ BitVec 14))
         (Z3 (_ BitVec 22))
         (A4 (_ BitVec 14))
         (B4 (_ BitVec 22))
         (C4 (_ BitVec 1))
         (D4 (_ BitVec 1))
         (E4 (_ BitVec 1))
         (F4 (_ BitVec 1))
         (G4 (_ BitVec 1))
         (H4 (_ BitVec 1))
         (I4 (_ BitVec 1))
         (J4 (_ BitVec 1))
         (K4 (_ BitVec 1))
         (L4 (_ BitVec 1))
         (M4 (_ BitVec 1))
         (N4 (_ BitVec 1))
         (O4 (_ BitVec 1))
         (P4 (_ BitVec 1))
         (Q4 (_ BitVec 22))
         (R4 (_ BitVec 9))
         (S4 (_ BitVec 20))
         (T4 (_ BitVec 16))
         (U4 (_ BitVec 38))
         (V4 (_ BitVec 30))
         (W4 (_ BitVec 30))
         (X4 (_ BitVec 20))
         (Y4 (_ BitVec 20))
         (Z4 (_ BitVec 1))
         (A5 (_ BitVec 1))
         (B5 (_ BitVec 1))
         (C5 (_ BitVec 20))
         (D5 (_ BitVec 20))
         (E5 (_ BitVec 20))
         (F5 (_ BitVec 20))
         (G5 (_ BitVec 20))
         (H5 (_ BitVec 16))
         (I5 (_ BitVec 20))
         (J5 (_ BitVec 18))
         (K5 (_ BitVec 30))
         (L5 (_ BitVec 1))
         (M5 (_ BitVec 38))
         (N5 (_ BitVec 30)))
  (! (let ((a!1 (= ((_ extract 20 1) (bvadd B4 ((_ extract 37 16) H2))) #x00000))
           (a!2 (= ((_ extract 22 3)
                     (bvadd ((_ extract 37 14) B2) (concat #b00 Z3)))
                   #x00000))
           (a!3 (or (not (= W1 #x00000))
                    ((_ bit2bool 2) M2)
                    (not (= ((_ extract 2 2) L) #b1))))
           (a!4 (or ((_ bit2bool 1) W1)
                    ((_ bit2bool 1) M2)
                    (not ((_ bit2bool 2) M2))
                    (not ((_ bit2bool 2) W1))
                    (not (= ((_ extract 1 1) L) #b1))))
           (a!5 (= ((_ extract 24 5)
                     (bvadd ((_ extract 37 12) W3) (concat #x0 X3)))
                   #x00000))
           (a!6 (= ((_ extract 26 7)
                     (bvadd ((_ extract 37 10) A2) (concat #b000000 U3)))
                   #x00000))
           (a!7 (= ((_ extract 28 9)
                     (bvadd ((_ extract 37 8) E1) (concat #x00 S3)))
                   #x00000))
           (a!8 (or ((_ bit2bool 0) C1) (not (= ((_ extract 0 0) Q4) #b1))))
           (a!9 ((_ extract 22 15)
                  (bvadd (concat #b0 Q4) (concat #b000 ((_ extract 21 2) C3)))))
           (a!10 (= ((_ extract 32 13)
                      (bvadd (concat #x000 O3) ((_ extract 37 4) G2)))
                    #x00000))
           (a!11 (= ((_ extract 30 11)
                      (bvadd ((_ extract 37 6) Y1) (concat #b0000000000 Q3)))
                    #x00000)))
     (let ((a!12 (and (or (not (= J2 #b0)) (= I2 #b0))
                      (not ((_ bit2bool 7) T3))
                      (not ((_ bit2bool 6) T3))
                      (not ((_ bit2bool 5) T3))
                      (not ((_ bit2bool 4) T3))
                      (not ((_ bit2bool 3) T3))
                      (not ((_ bit2bool 2) T3))
                      (not ((_ bit2bool 1) T3))
                      (not ((_ bit2bool 0) T3))
                      (= ((_ extract 36 17) B3) #x00000)
                      a!1
                      a!2
                      (not ((_ bit2bool 7) R3))
                      (not ((_ bit2bool 19) C1))
                      (not ((_ bit2bool 9) P3))
                      (not ((_ bit2bool 11) M3))
                      (not ((_ bit2bool 3) V3))
                      (not ((_ bit2bool 11) P3))
                      (not ((_ bit2bool 10) P3))
                      (not ((_ bit2bool 8) P3))
                      (not ((_ bit2bool 7) P3))
                      (not ((_ bit2bool 6) P3))
                      (not ((_ bit2bool 5) P3))
                      (not ((_ bit2bool 4) P3))
                      (not ((_ bit2bool 3) P3))
                      (not ((_ bit2bool 2) P3))
                      (not ((_ bit2bool 1) P3))
                      (not ((_ bit2bool 0) P3))
                      (not ((_ bit2bool 1) Y3))
                      (not ((_ bit2bool 13) M3))
                      (not ((_ bit2bool 12) M3))
                      (not ((_ bit2bool 10) M3))
                      (not ((_ bit2bool 9) M3))
                      (not ((_ bit2bool 8) M3))
                      (not ((_ bit2bool 7) M3))
                      (not ((_ bit2bool 6) M3))
                      (not ((_ bit2bool 5) M3))
                      (not ((_ bit2bool 4) M3))
                      (not ((_ bit2bool 3) M3))
                      (not ((_ bit2bool 2) M3))
                      (not ((_ bit2bool 1) M3))
                      (not ((_ bit2bool 0) M3))
                      (or ((_ bit2bool 0) M2)
                          (not ((_ bit2bool 0) W1))
                          (= ((_ extract 0 0) L) #b1))
                      (not (= ((_ extract 17 17) B1) #b1))
                      (not (= ((_ extract 17 17) Z) #b1))
                      (or ((_ bit2bool 0) W1)
                          ((_ bit2bool 0) L)
                          (not ((_ bit2bool 0) M2)))
                      a!3
                      (not ((_ bit2bool 2) R3))
                      a!4
                      (not ((_ bit2bool 3) R3))
                      a!5
                      (not ((_ bit2bool 0) V3))
                      (not ((_ bit2bool 4) R3))
                      (not ((_ bit2bool 1) V3))
                      (not ((_ bit2bool 5) R3))
                      a!6
                      a!7
                      (or ((_ bit2bool 0) B1)
                          ((_ bit2bool 1) B1)
                          ((_ bit2bool 2) B1)
                          (not ((_ bit2bool 1) Z))
                          (= ((_ extract 1 1) J5) #b1))
                      (not (= ((_ extract 17 17) J5) #b1))
                      (not ((_ bit2bool 6) R3))
                      (not ((_ bit2bool 2) V3))
                      (not ((_ bit2bool 0) Y3))
                      (or ((_ bit2bool 0) B1)
                          ((_ bit2bool 0) Z)
                          (not ((_ bit2bool 0) J5)))
                      a!8
                      (not ((_ bit2bool 8) R3))
                      (not ((_ bit2bool 4) V3))
                      (not ((_ bit2bool 0) A4))
                      (not ((_ bit2bool 2) Y3))
                      (not ((_ bit2bool 1) R3))
                      (or ((_ bit2bool 0) S) (not ((_ bit2bool 0) V2)))
                      (or ((_ bit2bool 0) C1) (not ((_ bit2bool 0) U2)))
                      (or ((_ bit2bool 0) D3) (not ((_ bit2bool 0) M1)))
                      (or ((_ bit2bool 0) Z1) (not ((_ bit2bool 0) H1)))
                      (or ((_ bit2bool 0) S1) (not ((_ bit2bool 0) G1)))
                      (or (= ((_ extract 0 0) E3) #b1)
                          (not ((_ bit2bool 0) X2)))
                      (or ((_ bit2bool 0) G5) (not ((_ bit2bool 0) Y2)))
                      (not ((_ bit2bool 5) V3))
                      (not ((_ bit2bool 9) R3))
                      (not ((_ bit2bool 1) A4))
                      (or ((_ bit2bool 0) Z)
                          ((_ bit2bool 0) J5)
                          (not ((_ bit2bool 0) B1)))
                      (not ((_ bit2bool 3) Y3))
                      (= a!9 #x00)
                      a!10
                      (not ((_ bit2bool 0) R3))
                      a!11
                      (or (= C2 #b0) ((_ bit2bool 0) H4) ((_ bit2bool 0) X))
                      (or (not ((_ bit2bool 2) R4))
                          (not (= D4 #b0))
                          (not (= K4 #b0)))
                      (or (not (= P #b0))
                          (not (= L4 #b0))
                          (not ((_ bit2bool 3) R4)))
                      (or (not ((_ bit2bool 4) R4))
                          (not (= E4 #b0))
                          (not (= M4 #b0)))
                      (or (not (= Q #b0))
                          (not (= J4 #b0))
                          (not ((_ bit2bool 1) R4)))
                      (or (not ((_ bit2bool 0) R4))
                          (not (= C4 #b0))
                          (not (= I4 #b0)))
                      (or (not (= V1 #b0))
                          (not (= F4 #b0))
                          (not ((_ bit2bool 6) R4)))
                      (or (not (= N4 #b0))
                          (not (= O #b0))
                          (not ((_ bit2bool 5) R4)))
                      (or (not ((_ bit2bool 8) R4))
                          (not (= G4 #b0))
                          (not (= P4 #b0)))
                      (or (not (= N #b0))
                          (not (= O4 #b0))
                          (not ((_ bit2bool 7) R4)))
                      (or (= ((_ extract 36 17) W2) #x00000)
                          (not (= T1 #b0))
                          (not (= Z4 #b0)))
                      (or (not ((_ bit2bool 1) R4))
                          (not (= Q #b1))
                          (not (= J4 #b1)))
                      (or (= X #b0) (not (= C2 #b1)) (not (= H4 #b1)))
                      (or (= C4 #b0) (not ((_ bit2bool 0) R4)) (not (= I4 #b1)))
                      (or (= D4 #b0) (not ((_ bit2bool 2) R4)) (not (= K4 #b1)))
                      (or (= P #b0) (not ((_ bit2bool 3) R4)) (not (= L4 #b1)))
                      (or (= E4 #b0) (not ((_ bit2bool 4) R4)) (not (= M4 #b1)))
                      (or (not ((_ bit2bool 5) R4))
                          (not (= O #b1))
                          (not (= N4 #b1)))
                      (or (= F4 #b0) (not ((_ bit2bool 6) R4)) (not (= V1 #b1)))
                      (or (= N #b0) (not ((_ bit2bool 7) R4)) (not (= O4 #b1)))
                      (or (= G4 #b0) (not ((_ bit2bool 8) R4)) (not (= P4 #b1)))
                      (or (not (= T1 #b1))
                          (= Z4 #b0)
                          (= ((_ extract 36 17) W2) #x00000)))))
       (= (INV!slice!1 A
                       B
                       C
                       D
                       E
                       F
                       G
                       H
                       I
                       J
                       K
                       L
                       M
                       N
                       O
                       P
                       Q
                       R
                       S
                       T
                       U
                       V
                       W
                       X
                       Y
                       Z
                       A1
                       B1
                       C1
                       D1
                       E1
                       F1
                       G1
                       H1
                       I1
                       J1
                       K1
                       L1
                       M1
                       N1
                       O1
                       P1
                       Q1
                       R1
                       S1
                       T1
                       U1
                       V1
                       W1
                       X1
                       Y1
                       Z1
                       A2
                       B2
                       C2
                       D2
                       E2
                       F2
                       G2
                       H2
                       I2
                       J2
                       K2
                       L2
                       M2
                       N2
                       O2
                       P2
                       Q2
                       R2
                       S2
                       T2
                       U2
                       V2
                       W2
                       X2
                       Y2
                       Z2
                       A3
                       B3
                       C3
                       D3
                       E3
                       F3
                       G3
                       H3
                       I3
                       J3
                       K3
                       L3
                       M3
                       N3
                       O3
                       P3
                       Q3
                       R3
                       S3
                       T3
                       U3
                       V3
                       W3
                       X3
                       Y3
                       Z3
                       A4
                       B4
                       C4
                       D4
                       E4
                       F4
                       G4
                       H4
                       I4
                       J4
                       K4
                       L4
                       M4
                       N4
                       O4
                       P4
                       Q4
                       R4
                       S4
                       T4
                       U4
                       V4
                       W4
                       X4
                       Y4
                       Z4
                       A5
                       B5
                       C5
                       D5
                       E5
                       F5
                       G5
                       H5
                       I5
                       J5
                       K5
                       L5
                       M5
                       N5)
          a!12)))
     :weight 0))
